(set-option :produce-models true)
(declare-fun asig_0 () Int)
(declare-fun ncons_0 () Int)
(declare-fun ntipo_0 () Int)
(declare-fun asig_1 () Int)
(declare-fun ncons_1 () Int)
(declare-fun ntipo_1 () Int)
(declare-fun asig_2 () Int)
(declare-fun ncons_2 () Int)
(declare-fun ntipo_2 () Int)
(declare-fun asig_3 () Int)
(declare-fun ncons_3 () Int)
(declare-fun ntipo_3 () Int)
(declare-fun asig_4 () Int)
(declare-fun ncons_4 () Int)
(declare-fun ntipo_4 () Int)
(declare-fun asig_5 () Int)
(declare-fun ncons_5 () Int)
(declare-fun ntipo_5 () Int)
(declare-fun asig_6 () Int)
(declare-fun ncons_6 () Int)
(declare-fun ntipo_6 () Int)
(declare-fun asig_7 () Int)
(declare-fun ncons_7 () Int)
(declare-fun ntipo_7 () Int)
(declare-fun asig_8 () Int)
(declare-fun ncons_8 () Int)
(declare-fun ntipo_8 () Int)
(declare-fun asig_9 () Int)
(declare-fun ncons_9 () Int)
(declare-fun ntipo_9 () Int)
(assert (=> (= asig_0 0 ) (= ncons_0 9 ) ) )
(assert (=> (= asig_0 1 ) (= ncons_0 9 ) ) )
(assert (=> (= asig_0 2 ) (= ncons_0 9 ) ) )
(assert (=> (= asig_1 0 ) (= ncons_1 9 ) ) )
(assert (=> (= asig_1 1 ) (= ncons_1 9 ) ) )
(assert (=> (= asig_1 2 ) (= ncons_1 9 ) ) )
(assert (=> (= asig_2 0 ) (= ncons_2 9 ) ) )
(assert (=> (= asig_2 1 ) (= ncons_2 9 ) ) )
(assert (=> (= asig_2 2 ) (= ncons_2 9 ) ) )
(assert (=> (= asig_3 0 ) (= ncons_3 9 ) ) )
(assert (=> (= asig_3 1 ) (= ncons_3 9 ) ) )
(assert (=> (= asig_3 2 ) (= ncons_3 9 ) ) )
(assert (=> (= asig_4 0 ) (= ncons_4 9 ) ) )
(assert (=> (= asig_4 1 ) (= ncons_4 9 ) ) )
(assert (=> (= asig_4 2 ) (= ncons_4 9 ) ) )
(assert (=> (= asig_5 0 ) (= ncons_5 9 ) ) )
(assert (=> (= asig_5 1 ) (= ncons_5 9 ) ) )
(assert (=> (= asig_5 2 ) (= ncons_5 9 ) ) )
(assert (=> (= asig_6 0 ) (= ncons_6 9 ) ) )
(assert (=> (= asig_6 1 ) (= ncons_6 9 ) ) )
(assert (=> (= asig_6 2 ) (= ncons_6 9 ) ) )
(assert (=> (= asig_7 0 ) (= ncons_7 9 ) ) )
(assert (=> (= asig_7 1 ) (= ncons_7 9 ) ) )
(assert (=> (= asig_7 2 ) (= ncons_7 9 ) ) )
(assert (=> (= asig_8 0 ) (= ncons_8 9 ) ) )
(assert (=> (= asig_8 1 ) (= ncons_8 9 ) ) )
(assert (=> (= asig_8 2 ) (= ncons_8 9 ) ) )
(assert (=> (= asig_9 0 ) (= ncons_9 9 ) ) )
(assert (=> (= asig_9 1 ) (= ncons_9 9 ) ) )
(assert (=> (= asig_9 2 ) (= ncons_9 9 ) ) )
(assert (=> (= asig_0 0 ) (= ntipo_0 0 ) ) )
(assert (=> (= asig_0 1 ) (= ntipo_0 1 ) ) )
(assert (=> (= asig_0 2 ) (= ntipo_0 2 ) ) )
(assert (=> (= asig_1 0 ) (= ntipo_1 0 ) ) )
(assert (=> (= asig_1 1 ) (= ntipo_1 1 ) ) )
(assert (=> (= asig_1 2 ) (= ntipo_1 2 ) ) )
(assert (=> (= asig_2 0 ) (= ntipo_2 0 ) ) )
(assert (=> (= asig_2 1 ) (= ntipo_2 1 ) ) )
(assert (=> (= asig_2 2 ) (= ntipo_2 2 ) ) )
(assert (=> (= asig_3 0 ) (= ntipo_3 0 ) ) )
(assert (=> (= asig_3 1 ) (= ntipo_3 1 ) ) )
(assert (=> (= asig_3 2 ) (= ntipo_3 2 ) ) )
(assert (=> (= asig_4 0 ) (= ntipo_4 0 ) ) )
(assert (=> (= asig_4 1 ) (= ntipo_4 1 ) ) )
(assert (=> (= asig_4 2 ) (= ntipo_4 2 ) ) )
(assert (=> (= asig_5 0 ) (= ntipo_5 0 ) ) )
(assert (=> (= asig_5 1 ) (= ntipo_5 1 ) ) )
(assert (=> (= asig_5 2 ) (= ntipo_5 2 ) ) )
(assert (=> (= asig_6 0 ) (= ntipo_6 0 ) ) )
(assert (=> (= asig_6 1 ) (= ntipo_6 1 ) ) )
(assert (=> (= asig_6 2 ) (= ntipo_6 2 ) ) )
(assert (=> (= asig_7 0 ) (= ntipo_7 0 ) ) )
(assert (=> (= asig_7 1 ) (= ntipo_7 1 ) ) )
(assert (=> (= asig_7 2 ) (= ntipo_7 2 ) ) )
(assert (=> (= asig_8 0 ) (= ntipo_8 0 ) ) )
(assert (=> (= asig_8 1 ) (= ntipo_8 1 ) ) )
(assert (=> (= asig_8 2 ) (= ntipo_8 2 ) ) )
(assert (=> (= asig_9 0 ) (= ntipo_9 0 ) ) )
(assert (=> (= asig_9 1 ) (= ntipo_9 1 ) ) )
(assert (=> (= asig_9 2 ) (= ntipo_9 2 ) ) )
(assert (=> (= ntipo_0 ntipo_1 ) (not (= ntipo_0 ntipo_2 ) ) ) )
(assert (=> (= ntipo_1 ntipo_2 ) (not (= ntipo_1 ntipo_3 ) ) ) )
(assert (=> (= ntipo_2 ntipo_3 ) (not (= ntipo_2 ntipo_4 ) ) ) )
(assert (=> (= ntipo_3 ntipo_4 ) (not (= ntipo_3 ntipo_5 ) ) ) )
(assert (=> (= ntipo_4 ntipo_5 ) (not (= ntipo_4 ntipo_6 ) ) ) )
(assert (=> (= ntipo_5 ntipo_6 ) (not (= ntipo_5 ntipo_7 ) ) ) )
(assert (=> (= ntipo_6 ntipo_7 ) (not (= ntipo_6 ntipo_8 ) ) ) )
(assert (=> (= ntipo_7 ntipo_8 ) (not (= ntipo_7 ntipo_9 ) ) ) )
(assert (<= (+ ncons_9 (+ ncons_8 (+ ncons_7 (+ ncons_6 (+ ncons_5 (+ ncons_4 (+ ncons_3 (+ ncons_2 (+ ncons_1 ncons_0 ) ) ) ) ) ) ) ) ) 999 ) )
(assert (<= (+ (ite (= asig_9 0 ) 1 0 ) (+ (ite (= asig_8 0 ) 1 0 ) (+ (ite (= asig_7 0 ) 1 0 ) (+ (ite (= asig_6 0 ) 1 0 ) (+ (ite (= asig_5 0 ) 1 0 ) (+ (ite (= asig_4 0 ) 1 0 ) (+ (ite (= asig_3 0 ) 1 0 ) (+ (ite (= asig_2 0 ) 1 0 ) (+ (ite (= asig_1 0 ) 1 0 ) (ite (= asig_0 0 ) 1 0 ) ) ) ) ) ) ) ) ) ) 8 ) )
(assert (<= (+ (ite (= asig_9 1 ) 1 0 ) (+ (ite (= asig_8 1 ) 1 0 ) (+ (ite (= asig_7 1 ) 1 0 ) (+ (ite (= asig_6 1 ) 1 0 ) (+ (ite (= asig_5 1 ) 1 0 ) (+ (ite (= asig_4 1 ) 1 0 ) (+ (ite (= asig_3 1 ) 1 0 ) (+ (ite (= asig_2 1 ) 1 0 ) (+ (ite (= asig_1 1 ) 1 0 ) (ite (= asig_0 1 ) 1 0 ) ) ) ) ) ) ) ) ) ) 7 ) )
(assert (<= (+ (ite (= asig_9 2 ) 1 0 ) (+ (ite (= asig_8 2 ) 1 0 ) (+ (ite (= asig_7 2 ) 1 0 ) (+ (ite (= asig_6 2 ) 1 0 ) (+ (ite (= asig_5 2 ) 1 0 ) (+ (ite (= asig_4 2 ) 1 0 ) (+ (ite (= asig_3 2 ) 1 0 ) (+ (ite (= asig_2 2 ) 1 0 ) (+ (ite (= asig_1 2 ) 1 0 ) (ite (= asig_0 2 ) 1 0 ) ) ) ) ) ) ) ) ) ) 6 ) )
(check-sat)
(get-value (asig_0) )
(get-value (asig_1) )
(get-value (asig_2) )
(get-value (asig_3) )
(get-value (asig_4) )
(get-value (asig_5) )
(get-value (asig_6) )
(get-value (asig_7) )
(get-value (asig_8) )
(get-value (asig_9) )
